2 100 1053
2 5 3 4 5 4 4 4 7 4
4 1
2 9 7 6
1
0 40.0 50.0 0.0 0.0 0 1236
2 45.0 68.0 90.0 10.0 850 1030 9 0 1 0 1 0 0 1 0 0 0
3 45.0 70.0 90.0 30.0 758 938 49 0 0 0 0 0 1 0 0 0 0
4 42.0 66.0 90.0 10.0 16 196 42 1 0 0 0 0 0 1 1 0 0
5 42.0 68.0 90.0 10.0 665 845 8 1 0 0 0 0 0 0 0 1 0
6 42.0 65.0 90.0 10.0 15 195 90 0 1 1 0 1 0 0 0 1 0
7 40.0 69.0 90.0 20.0 572 752 45 0 0 0 0 0 0 0 0 1 0
8 40.0 66.0 90.0 20.0 108 288 92 0 0 0 0 0 1 0 0 0 1
9 38.0 68.0 90.0 20.0 200 380 63 0 0 1 1 1 0 1 0 0 0
10 38.0 70.0 90.0 10.0 480 660 83 0 1 0 0 0 1 0 0 0 1
11 35.0 66.0 90.0 10.0 294 474 21 0 0 0 0 0 1 0 0 0 0
12 35.0 69.0 90.0 10.0 387 567 3 0 0 0 0 0 0 1 1 1 1
13 25.0 85.0 90.0 20.0 597 777 72 0 0 0 0 1 1 0 0 1 0
14 22.0 75.0 90.0 30.0 30 210 97 0 0 0 0 0 1 0 0 0 0
15 22.0 85.0 90.0 10.0 504 684 17 0 0 1 0 1 0 0 0 0 0
16 20.0 80.0 90.0 40.0 317 497 93 0 0 0 0 1 0 0 0 0 0
17 20.0 85.0 90.0 40.0 412 592 1 0 0 1 0 0 0 0 1 0 1
18 18.0 75.0 90.0 20.0 34 214 83 0 0 1 1 0 0 0 1 0 0
19 15.0 75.0 90.0 20.0 127 307 40 1 0 0 0 0 0 0 1 0 0
20 15.0 80.0 90.0 10.0 222 402 61 0 0 0 0 0 1 0 0 0 0
21 30.0 50.0 90.0 10.0 10 190 78 0 1 0 0 0 0 0 0 1 0
22 30.0 52.0 90.0 20.0 850 1030 51 0 1 0 0 1 1 0 0 0 0
23 28.0 52.0 90.0 20.0 758 938 94 0 0 0 0 1 1 0 0 0 0
24 28.0 55.0 90.0 10.0 665 845 16 0 0 0 0 0 1 0 0 0 0
25 25.0 50.0 90.0 10.0 15 195 47 0 0 0 0 0 1 0 0 0 0
26 25.0 52.0 90.0 40.0 107 287 99 0 0 0 1 0 0 1 0 0 0
27 25.0 55.0 90.0 10.0 572 752 26 1 0 1 1 0 0 1 0 1 0
28 23.0 52.0 90.0 10.0 199 379 9 0 0 0 0 0 1 0 0 0 0
29 23.0 55.0 90.0 20.0 480 660 97 0 0 0 0 0 1 0 1 0 0
30 20.0 50.0 90.0 10.0 292 472 56 0 0 0 1 0 0 0 1 0 0
31 20.0 55.0 90.0 10.0 387 567 71 0 0 0 0 0 0 0 1 0 0
32 10.0 35.0 90.0 20.0 129 309 98 1 1 1 0 0 0 0 0 0 0
33 10.0 40.0 90.0 30.0 31 211 2 0 0 0 0 0 1 0 0 0 0
34 8.0 40.0 90.0 40.0 33 213 61 1 0 0 0 0 1 0 0 0 0
35 8.0 45.0 90.0 20.0 694 874 73 1 0 0 1 1 0 0 1 0 0
36 5.0 35.0 90.0 10.0 224 404 51 0 0 1 1 0 0 0 1 1 0
37 5.0 45.0 90.0 10.0 601 781 39 0 0 0 0 0 0 0 1 1 0
38 2.0 40.0 90.0 20.0 319 499 17 0 1 0 0 0 0 0 1 0 0
39 0.0 40.0 90.0 30.0 411 591 38 0 0 0 1 0 0 1 0 0 0
40 0.0 45.0 90.0 20.0 506 686 16 0 0 0 0 0 0 0 0 1 0
41 35.0 30.0 90.0 10.0 203 383 25 0 1 1 0 0 0 0 1 0 0
42 35.0 32.0 90.0 10.0 111 291 42 0 1 0 0 1 0 0 0 0 0
43 33.0 32.0 90.0 20.0 19 199 2 0 0 1 0 1 0 0 0 0 0
44 33.0 35.0 90.0 10.0 16 196 50 1 0 0 0 0 0 0 0 0 1
45 32.0 30.0 90.0 10.0 296 476 19 0 0 0 0 0 0 0 0 1 0
46 30.0 30.0 90.0 10.0 481 661 14 0 1 1 0 0 0 1 0 1 1
47 30.0 32.0 90.0 30.0 389 569 8 0 0 0 0 0 0 0 0 1 0
48 30.0 35.0 90.0 10.0 947 1127 47 0 0 1 0 0 0 0 1 1 0
49 28.0 30.0 90.0 10.0 573 753 96 0 0 0 0 0 1 0 0 0 1
50 28.0 35.0 90.0 10.0 944 1124 60 0 0 0 0 0 0 0 0 0 1
51 26.0 32.0 90.0 10.0 758 938 76 0 0 0 0 0 0 0 1 0 0
52 25.0 30.0 90.0 10.0 666 846 99 1 0 0 0 0 0 0 0 1 1
53 25.0 35.0 90.0 10.0 851 1031 12 0 0 0 0 0 0 0 0 1 1
54 44.0 5.0 90.0 20.0 227 407 69 0 0 0 0 0 1 0 0 0 0
55 42.0 10.0 90.0 40.0 132 312 3 0 0 0 0 0 0 1 0 1 1
56 42.0 15.0 90.0 10.0 37 217 36 0 0 0 0 1 0 0 0 0 0
57 40.0 5.0 90.0 30.0 321 501 70 0 0 1 0 0 0 1 0 1 0
58 40.0 15.0 90.0 40.0 35 215 89 0 0 1 0 0 0 0 0 1 0
59 38.0 5.0 90.0 30.0 413 593 58 0 0 0 0 1 0 0 0 0 0
60 38.0 15.0 90.0 10.0 606 786 22 0 0 0 0 0 1 0 0 0 0
61 35.0 5.0 90.0 20.0 506 686 26 0 0 1 0 0 0 1 0 0 1
62 50.0 30.0 90.0 10.0 481 661 44 0 0 0 0 0 1 0 0 0 0
63 50.0 35.0 90.0 20.0 200 380 27 0 1 1 1 0 0 0 0 0 0
64 50.0 40.0 90.0 50.0 105 285 8 0 0 0 0 0 0 0 1 1 1
65 48.0 30.0 90.0 10.0 573 753 20 0 0 0 0 0 1 0 1 0 0
66 48.0 40.0 90.0 10.0 13 193 33 0 0 0 0 0 1 0 0 0 0
67 47.0 35.0 90.0 10.0 761 941 82 0 0 0 0 1 1 1 1 0 0
68 47.0 40.0 90.0 10.0 12 192 51 0 1 1 0 0 0 1 1 0 0
69 45.0 30.0 90.0 10.0 666 846 14 0 0 0 0 0 0 0 1 0 0
70 45.0 35.0 90.0 10.0 853 1033 82 0 0 0 0 1 0 0 1 0 0
71 95.0 30.0 90.0 30.0 332 512 36 0 0 0 0 0 0 1 0 0 0
72 95.0 35.0 90.0 20.0 237 417 12 0 0 0 1 0 0 1 1 0 0
73 53.0 30.0 90.0 10.0 388 568 57 0 0 0 0 0 1 0 0 0 0
74 92.0 30.0 90.0 10.0 425 605 47 0 0 1 0 1 0 1 0 0 0
75 53.0 35.0 90.0 50.0 293 473 90 1 0 0 0 0 0 0 0 0 0
76 45.0 65.0 90.0 20.0 943 1123 10 0 1 0 0 1 0 0 1 0 0
77 90.0 35.0 90.0 10.0 142 322 35 0 0 1 0 0 0 1 1 0 0
78 88.0 30.0 90.0 10.0 519 699 54 0 0 1 0 0 0 0 0 1 1
79 88.0 35.0 90.0 20.0 50 230 0 0 0 0 0 1 0 0 0 1 1
80 87.0 30.0 90.0 10.0 610 790 78 0 0 0 0 0 0 0 0 0 1
81 85.0 25.0 90.0 10.0 705 885 86 0 0 0 0 0 0 0 0 0 1
82 85.0 35.0 90.0 30.0 47 227 16 0 0 0 1 0 1 0 0 0 0
83 75.0 55.0 90.0 20.0 305 485 32 1 0 1 0 0 1 0 0 0 1
84 72.0 55.0 90.0 10.0 212 392 11 0 0 0 0 0 1 0 0 0 0
85 70.0 58.0 90.0 20.0 401 581 33 0 0 0 0 0 0 0 0 0 1
86 68.0 60.0 90.0 30.0 494 674 89 0 1 0 0 0 0 0 0 0 0
87 66.0 55.0 90.0 10.0 116 296 46 0 0 0 0 1 0 0 0 1 0
88 65.0 55.0 90.0 20.0 25 205 22 0 0 0 1 0 1 1 1 0 0
89 65.0 60.0 90.0 30.0 587 767 29 0 0 0 0 0 0 0 0 1 0
90 63.0 58.0 90.0 10.0 680 860 78 0 1 0 1 0 1 0 1 0 0
91 60.0 55.0 90.0 10.0 20 200 75 1 1 0 0 0 0 0 1 1 0
92 60.0 60.0 90.0 10.0 773 953 74 0 1 0 0 0 1 1 0 0 0
93 67.0 85.0 90.0 20.0 315 495 82 0 0 1 0 0 0 0 0 0 0
94 65.0 85.0 90.0 40.0 407 587 40 0 0 0 1 0 0 0 0 1 0
95 65.0 82.0 90.0 10.0 221 401 16 0 0 1 0 1 0 1 0 0 0
96 62.0 80.0 90.0 30.0 128 308 5 0 0 1 0 0 0 0 0 0 0
97 60.0 80.0 90.0 10.0 36 216 0 1 0 1 0 0 0 0 0 1 0
98 60.0 85.0 90.0 30.0 502 682 30 0 0 0 0 0 0 0 0 0 1
99 58.0 75.0 90.0 20.0 30 210 65 0 0 0 0 0 1 0 0 0 0
100 55.0 80.0 90.0 10.0 692 872 19 0 0 0 1 0 0 0 0 0 0
101 55.0 85.0 90.0 20.0 597 777 77 0 0 0 1 1 0 0 0 0 0